1922
2
30, 34, 87, 49, 56, 98, 49, 67, 23, 83, 48, 67, 97, 21, 70, 98, 92, 95, 91, 53, 99, 95, 94, 87, 100, 97, 37, 53, 33, 12, 2, 93, 29, 66, 60, 49, 11
57, 83, 44, 4, 48, 85, 93, 96, 15, 4, 43, 53, 56, 3, 24, 79, 57, 76, 54, 63, 89, 53, 84, 92, 55, 77, 64, 64, 91, 35, 13, 22, 95, 63, 73, 35, 81
1, 2, 2, 2, 1, 1, 2, 1, 1, 2, 1, 2, 1, 2, 1, 2, 2, 2, 2, 2, 1, 1, 1, 1, 1, 2, 2, 2, 2, 2, 1, 2, 1, 1, 2, 1, 1